2025-02-23 17:56:16,653 - INFO - Set parameter WLSAccessID
2025-02-23 17:56:16,654 - INFO - Set parameter WLSSecret
2025-02-23 17:56:16,654 - INFO - Set parameter LicenseID to value 2626770
2025-02-23 17:56:16,678 - INFO - Academic license 2626770 - for non-commercial use only - registered to fa___@uw.edu
2025-02-23 17:56:16,680 - INFO - Initialization complete
2025-02-23 17:56:25,672 - INFO - Variables created successfully
2025-02-23 17:58:08,586 - INFO - Constraints added successfully
2025-02-23 17:58:08,822 - INFO - Objective function set successfully
2025-02-23 17:58:09,380 - INFO - Set parameter MIPGap to value 0.1
2025-02-23 17:58:09,381 - INFO - Set parameter TimeLimit to value 3600
2025-02-23 17:58:09,381 - INFO - Set parameter MIPFocus to value 1
2025-02-23 17:58:09,381 - INFO - Starting optimization - accepting solutions within 10% of optimal
2025-02-23 17:58:09,381 - INFO - Maximum possible satisfied requests: 9600
2025-02-23 17:58:11,052 - INFO - Gurobi Optimizer version 12.0.1 build v12.0.1rc0 (win64 - Windows 11.0 (26100.2))
2025-02-23 17:58:11,053 - INFO - 
2025-02-23 17:58:11,053 - INFO - CPU model: AMD Ryzen 7 2700X Eight-Core Processor, instruction set [SSE2|AVX|AVX2]
2025-02-23 17:58:11,053 - INFO - Thread count: 8 physical cores, 16 logical processors, using up to 16 threads
2025-02-23 17:58:11,053 - INFO - 
2025-02-23 17:58:11,053 - INFO - Non-default parameters:
2025-02-23 17:58:11,053 - INFO - TimeLimit  3600
2025-02-23 17:58:11,053 - INFO - MIPGap  0.1
2025-02-23 17:58:11,055 - INFO - MIPFocus  1
2025-02-23 17:58:11,055 - INFO - 
2025-02-23 17:58:11,055 - INFO - Academic license 2626770 - for non-commercial use only - registered to fa___@uw.edu
2025-02-23 17:58:11,056 - INFO - Optimize a model with 6490921 rows, 2428104 columns and 17788464 nonzeros
2025-02-23 17:58:11,252 - INFO - Model fingerprint: 0xf7328e4f
2025-02-23 17:58:11,255 - INFO - Variable types: 0 continuous, 2428104 integer (2428104 binary)
2025-02-23 17:58:11,280 - INFO - Coefficient statistics:
2025-02-23 17:58:11,280 - INFO -   Matrix range     [1e+00, 1e+00]
2025-02-23 17:58:11,280 - INFO -   Objective range  [1e+00, 1e+00]
2025-02-23 17:58:11,280 - INFO -   Bounds range     [1e+00, 1e+00]
2025-02-23 17:58:11,281 - INFO -   RHS range        [1e+00, 4e+01]
2025-02-23 17:58:18,724 - INFO - Presolve removed 877 rows and 32 columns (presolve time = 5s)...
2025-02-23 17:58:23,274 - INFO - Presolve removed 879 rows and 34 columns (presolve time = 10s)...
2025-02-23 17:58:28,266 - INFO - Presolve removed 879 rows and 34 columns (presolve time = 15s)...
2025-02-23 17:58:33,277 - INFO - Presolve removed 879 rows and 34 columns (presolve time = 20s)...
2025-02-23 17:58:38,276 - INFO - Presolve removed 879 rows and 34 columns (presolve time = 25s)...
2025-02-23 17:58:43,265 - INFO - Presolve removed 879 rows and 34 columns (presolve time = 30s)...
2025-02-23 17:58:48,266 - INFO - Presolve removed 879 rows and 34 columns (presolve time = 35s)...
2025-02-23 17:58:53,280 - INFO - Presolve removed 879 rows and 34 columns (presolve time = 40s)...
2025-02-23 17:58:58,270 - INFO - Presolve removed 879 rows and 34 columns (presolve time = 45s)...
2025-02-23 17:59:03,270 - INFO - Presolve removed 879 rows and 34 columns (presolve time = 50s)...
2025-02-23 17:59:08,265 - INFO - Presolve removed 879 rows and 34 columns (presolve time = 55s)...
2025-02-23 17:59:13,274 - INFO - Presolve removed 879 rows and 34 columns (presolve time = 60s)...
2025-02-23 17:59:18,266 - INFO - Presolve removed 879 rows and 34 columns (presolve time = 65s)...
2025-02-23 17:59:23,268 - INFO - Presolve removed 879 rows and 34 columns (presolve time = 70s)...
2025-02-23 17:59:28,296 - INFO - Presolve removed 879 rows and 34 columns (presolve time = 75s)...
2025-02-23 17:59:33,274 - INFO - Presolve removed 879 rows and 34 columns (presolve time = 80s)...
2025-02-23 17:59:38,289 - INFO - Presolve removed 879 rows and 34 columns (presolve time = 85s)...
2025-02-23 17:59:43,295 - INFO - Presolve removed 879 rows and 34 columns (presolve time = 90s)...
2025-02-23 17:59:48,314 - INFO - Presolve removed 879 rows and 34 columns (presolve time = 95s)...
2025-02-23 17:59:53,290 - INFO - Presolve removed 879 rows and 34 columns (presolve time = 100s)...
2025-02-23 17:59:58,325 - INFO - Presolve removed 879 rows and 34 columns (presolve time = 105s)...
2025-02-23 18:00:03,307 - INFO - Presolve removed 879 rows and 34 columns (presolve time = 110s)...
2025-02-23 18:00:08,270 - INFO - Presolve removed 879 rows and 34 columns (presolve time = 115s)...
2025-02-23 18:00:13,307 - INFO - Presolve removed 879 rows and 34 columns (presolve time = 120s)...
2025-02-23 18:00:18,302 - INFO - Presolve removed 879 rows and 34 columns (presolve time = 125s)...
2025-02-23 18:00:23,310 - INFO - Presolve removed 879 rows and 34 columns (presolve time = 130s)...
2025-02-23 18:00:28,316 - INFO - Presolve removed 879 rows and 34 columns (presolve time = 135s)...
2025-02-23 18:00:33,283 - INFO - Presolve removed 879 rows and 34 columns (presolve time = 140s)...
2025-02-23 18:00:38,267 - INFO - Presolve removed 879 rows and 34 columns (presolve time = 145s)...
2025-02-23 18:00:43,278 - INFO - Presolve removed 879 rows and 34 columns (presolve time = 150s)...
2025-02-23 18:00:48,273 - INFO - Presolve removed 879 rows and 34 columns (presolve time = 155s)...
2025-02-23 18:00:53,277 - INFO - Presolve removed 879 rows and 34 columns (presolve time = 160s)...
2025-02-23 18:00:58,310 - INFO - Presolve removed 879 rows and 34 columns (presolve time = 165s)...
2025-02-23 18:01:03,324 - INFO - Presolve removed 879 rows and 34 columns (presolve time = 170s)...
2025-02-23 18:01:08,312 - INFO - Presolve removed 879 rows and 34 columns (presolve time = 175s)...
2025-02-23 18:01:13,299 - INFO - Presolve removed 879 rows and 34 columns (presolve time = 180s)...
2025-02-23 18:01:18,297 - INFO - Presolve removed 879 rows and 34 columns (presolve time = 185s)...
2025-02-23 18:01:23,311 - INFO - Presolve removed 879 rows and 34 columns (presolve time = 190s)...
2025-02-23 18:01:28,284 - INFO - Presolve removed 879 rows and 34 columns (presolve time = 195s)...
2025-02-23 18:01:33,287 - INFO - Presolve removed 879 rows and 34 columns (presolve time = 200s)...
2025-02-23 18:01:38,301 - INFO - Presolve removed 879 rows and 34 columns (presolve time = 205s)...
2025-02-23 18:01:43,314 - INFO - Presolve removed 879 rows and 34 columns (presolve time = 210s)...
2025-02-23 18:01:48,315 - INFO - Presolve removed 879 rows and 34 columns (presolve time = 215s)...
2025-02-23 18:01:53,272 - INFO - Presolve removed 879 rows and 34 columns (presolve time = 220s)...
2025-02-23 18:01:58,326 - INFO - Presolve removed 879 rows and 34 columns (presolve time = 225s)...
2025-02-23 18:02:03,309 - INFO - Presolve removed 879 rows and 34 columns (presolve time = 230s)...
2025-02-23 18:02:08,290 - INFO - Presolve removed 879 rows and 34 columns (presolve time = 235s)...
2025-02-23 18:02:13,316 - INFO - Presolve removed 879 rows and 34 columns (presolve time = 240s)...
2025-02-23 18:02:18,268 - INFO - Presolve removed 879 rows and 34 columns (presolve time = 245s)...
2025-02-23 18:02:23,264 - INFO - Presolve removed 879 rows and 34 columns (presolve time = 250s)...
2025-02-23 18:02:28,314 - INFO - Presolve removed 879 rows and 34 columns (presolve time = 255s)...
2025-02-23 18:02:33,262 - INFO - Presolve removed 879 rows and 34 columns (presolve time = 260s)...
2025-02-23 18:02:38,317 - INFO - Presolve removed 879 rows and 34 columns (presolve time = 265s)...
2025-02-23 18:02:43,355 - INFO - Presolve removed 879 rows and 34 columns (presolve time = 270s)...
2025-02-23 18:02:48,318 - INFO - Presolve removed 879 rows and 34 columns (presolve time = 275s)...
2025-02-23 18:02:53,278 - INFO - Presolve removed 879 rows and 34 columns (presolve time = 280s)...
2025-02-23 18:02:58,269 - INFO - Presolve removed 879 rows and 34 columns (presolve time = 285s)...
2025-02-23 18:03:03,289 - INFO - Presolve removed 879 rows and 34 columns (presolve time = 290s)...
2025-02-23 18:03:08,321 - INFO - Presolve removed 879 rows and 34 columns (presolve time = 295s)...
2025-02-23 18:03:13,321 - INFO - Presolve removed 879 rows and 34 columns (presolve time = 300s)...
2025-02-23 18:03:18,277 - INFO - Presolve removed 879 rows and 34 columns (presolve time = 305s)...
2025-02-23 18:03:23,265 - INFO - Presolve removed 879 rows and 34 columns (presolve time = 310s)...
2025-02-23 18:03:28,409 - INFO - Presolve removed 879 rows and 34 columns (presolve time = 315s)...
2025-02-23 18:03:34,335 - INFO - Presolve removed 879 rows and 34 columns (presolve time = 321s)...
2025-02-23 18:03:38,269 - INFO - Presolve removed 879 rows and 34 columns (presolve time = 325s)...
2025-02-23 18:03:43,725 - INFO - Presolve removed 879 rows and 34 columns (presolve time = 330s)...
2025-02-23 18:03:48,350 - INFO - Presolve removed 879 rows and 62 columns (presolve time = 335s)...
2025-02-23 18:03:53,324 - INFO - Presolve removed 879 rows and 62 columns (presolve time = 340s)...
2025-02-23 18:03:58,341 - INFO - Presolve removed 879 rows and 62 columns (presolve time = 345s)...
2025-02-23 18:04:03,286 - INFO - Presolve removed 879 rows and 62 columns (presolve time = 350s)...
2025-02-23 18:04:08,392 - INFO - Presolve removed 879 rows and 62 columns (presolve time = 355s)...
2025-02-23 18:04:31,786 - INFO - Presolve removed 879 rows and 62 columns (presolve time = 379s)...
2025-02-23 18:04:39,246 - INFO - Presolve removed 879 rows and 62 columns (presolve time = 386s)...
2025-02-23 18:04:42,424 - INFO - Presolve removed 879 rows and 62 columns
2025-02-23 18:04:42,425 - INFO - Presolve time: 389.16s
2025-02-23 18:04:42,654 - INFO - Presolved: 6490042 rows, 2428042 columns, 17788200 nonzeros
2025-02-23 18:04:46,782 - INFO - Variable types: 0 continuous, 2428042 integer (2428042 binary)
2025-02-23 18:05:07,605 - INFO - 
2025-02-23 18:05:07,605 - INFO - Deterministic concurrent LP optimizer: primal simplex, dual simplex, and barrier
2025-02-23 18:05:07,605 - INFO - Showing barrier log only...
2025-02-23 18:05:07,606 - INFO - 
2025-02-23 18:05:37,285 - INFO - Root barrier log...
2025-02-23 18:05:37,290 - INFO - 
2025-02-23 18:05:37,300 - INFO - Ordering time: 0.01s
2025-02-23 18:05:37,303 - INFO - 
2025-02-23 18:05:37,303 - INFO - Barrier statistics:
2025-02-23 18:05:37,304 - INFO -  AA' NZ     : 1.111e+04
2025-02-23 18:05:37,305 - INFO -  Factor NZ  : 3.810e+04 (roughly 1 MB of memory)
2025-02-23 18:05:37,305 - INFO -  Factor Ops : 1.189e+06 (less than 1 second per iteration)
2025-02-23 18:05:37,306 - INFO -  Threads    : 1
2025-02-23 18:05:37,352 - INFO - 
2025-02-23 18:05:37,352 - INFO -                   Objective                Residual
2025-02-23 18:05:37,352 - INFO - Iter       Primal          Dual         Primal    Dual     Compl     Time
2025-02-23 18:05:37,354 - INFO -    0   9.60000000e+03  9.60240471e+03  9.33e+00 0.00e+00  1.20e-01   446s
2025-02-23 18:05:37,358 - INFO -    1   9.60000000e+03  9.62560794e+03  1.10e+00 9.71e-17  2.00e-02   446s
2025-02-23 18:05:37,361 - INFO -    2   9.60000000e+03  9.60783088e+03  1.91e-01 2.22e-16  3.88e-03   446s
2025-02-23 18:05:37,363 - INFO -    3   9.60000000e+03  9.60126186e+03  3.77e-03 9.71e-17  4.58e-04   446s
2025-02-23 18:05:37,367 - INFO -    4   9.60000000e+03  9.60000250e+03  4.00e-14 3.25e-17  8.87e-07   446s
2025-02-23 18:05:37,369 - INFO -    5   9.60000000e+03  9.60000000e+03  2.60e-14 2.99e-19  8.87e-10   446s
2025-02-23 18:05:37,372 - INFO -    6   9.60000000e+03  9.60000000e+03  2.44e-14 1.10e-22  8.87e-13   446s
2025-02-23 18:05:37,376 - INFO -    7   9.60000000e+03  9.60000000e+03  3.11e-15 1.96e-25  8.87e-16   446s
2025-02-23 18:05:37,376 - INFO - 
2025-02-23 18:05:37,377 - INFO - Barrier solved model in 7 iterations and 446.32 seconds (191.10 work units)
2025-02-23 18:05:37,377 - INFO - Optimal objective 9.60000000e+03
2025-02-23 18:05:37,377 - INFO - 
2025-02-23 18:05:37,379 - INFO - 
2025-02-23 18:05:37,380 - INFO - Root crossover log...
2025-02-23 18:05:37,380 - INFO - 
2025-02-23 18:05:37,382 - INFO -        0 DPushes remaining with DInf 0.0000000e+00               446s
2025-02-23 18:05:37,383 - INFO - 
2025-02-23 18:05:37,383 - INFO -      235 PPushes remaining with PInf 0.0000000e+00               446s
2025-02-23 18:05:37,387 - INFO -        0 PPushes remaining with PInf 0.0000000e+00               446s
2025-02-23 18:05:37,387 - INFO - 
2025-02-23 18:05:37,388 - INFO -   Push phase complete: Pinf 0.0000000e+00, Dinf 0.0000000e+00    446s
2025-02-23 18:05:37,388 - INFO - 
2025-02-23 18:05:37,389 - INFO - 
2025-02-23 18:05:37,389 - INFO - Root simplex log...
2025-02-23 18:05:37,391 - INFO - 
2025-02-23 18:05:37,391 - INFO - Iteration    Objective       Primal Inf.    Dual Inf.      Time
2025-02-23 18:05:37,391 - INFO -      238    9.6000000e+03   0.000000e+00   0.000000e+00    446s
2025-02-23 18:05:37,392 - INFO -      238    9.6000000e+03   0.000000e+00   0.000000e+00    446s
2025-02-23 18:05:38,106 - INFO - 
2025-02-23 18:05:38,107 - INFO - Use crossover to convert LP symmetric solution to basic solution...
2025-02-23 18:05:39,157 - INFO - Warning: insufficient memory, speed may be affected.
2025-02-23 18:05:40,105 - INFO - Warning: Possible non-determinism after error
2025-02-23 18:05:40,105 - INFO - 
2025-02-23 18:05:40,669 - INFO - 
2025-02-23 18:05:40,669 - INFO - Explored 0 nodes (0 simplex iterations) in 449.61 seconds (191.29 work units)
2025-02-23 18:05:40,669 - INFO - Thread count was 1 (of 16 available processors)
2025-02-23 18:05:40,670 - INFO - 
2025-02-23 18:05:40,670 - INFO - Solution count 0
2025-02-23 18:05:40,670 - INFO - 
2025-02-23 18:05:40,670 - INFO - Solve interrupted (error code 10001)
2025-02-23 18:05:40,670 - INFO - Best objective -, best bound -, gap -
2025-02-23 18:05:40,771 - ERROR - Gurobi error: Out of memory
2025-02-23 18:05:40,772 - ERROR - Error running optimization: Out of memory
2025-02-23 18:05:40,908 - INFO - Warning: environment still referenced so free is deferred (Continue to use WLS)
